81
125
99	1
98	2
97	1
96	1
95	1
94	2
93	5
92	3
91	3
90	3
89	1
88	1
87	3
86	3
85	3
84	1
83	2
81	1
80	3
79	6
78	4
77	2
76	4
75	4
74	4
73	4
72	2
71	2
70	3
69	1
68	5
67	4
66	1
65	1
63	2
62	1
61	2
60	3
59	2
58	3
57	3
56	2
55	1
54	1
53	5
52	2
51	3
50	2
49	2
47	3
46	3
45	2
44	3
43	3
42	2
41	1
40	1
39	2
37	3
36	4
35	6
34	5
33	3
32	1
31	2
30	2
29	3
28	1
27	1
26	5
25	6
24	3
23	1
22	2
20	1
19	2
18	1
17	1
16	1
15	4
12	1
